g3 0 1 0	# problem hybriddynamic_var
 81 100 1 0 60	# vars, constraints, objectives, ranges, eqns
 20 1	# nonlinear constraints, objectives
 0 0	# network constraints: nonlinear, linear
 20 31 10	# nonlinear vars in constraints, objectives, both
 0 0 0 1	# linear network variables; functions; arith, flags
 10 0 0 0 0	# discrete variables: binary, integer, nonlinear (b,c,o)
 265 21	# nonzeros in Jacobian, gradients
 4 3	# max name lengths: constraints, variables
 0 0 0 0 0	# common exprs: b,c,o,c1,o1
b
0 .16 .24
0 .16 .24
0 .16 .24
0 .16 .24
0 .16 .24
0 .16 .24
0 .16 .24
0 .16 .24
0 .16 .24
0 .16 .24
3
3
3
3
3
3
3
3
3
3
0 -2 2
0 -2 2
0 -2 2
0 -2 2
0 -2 2
0 -2 2
0 -2 2
0 -2 2
0 -2 2
0 -2 2
3
0 -1 1
0 -1 1
0 -1 1
0 -1 1
0 -1 1
0 -1 1
0 -1 1
0 -1 1
0 -1 1
0 -1 1
4 -2
3
3
3
3
3
3
3
3
3
4 0
3
3
3
3
3
3
3
3
3
3
3
3
3
3
3
3
3
3
3
0 0 1
0 0 1
0 0 1
0 0 1
0 0 1
0 0 1
0 0 1
0 0 1
0 0 1
0 0 1
x60
0 .2
1 .2
2 .2
3 .2
4 .2
5 .2
6 .2
7 .2
8 .2
9 .2
20 -2
21 -2
22 -2
23 -2
24 -2
25 -2
26 -2
27 -2
28 -2
29 -2
30 1
31 -1
32 -1
33 -1
34 -1
35 -1
36 -1
37 -1
38 -1
39 -1
40 -1
41 -2
42 -2
43 -2
44 -2
45 -2
46 -2
47 -2
48 -2
49 -2
50 -2
52 1
53 1
54 1
55 1
56 1
57 1
58 1
59 1
60 1
61 1
62 1
63 1
64 1
65 1
66 1
67 1
68 1
69 1
70 1
r
4 0
4 0
4 0
4 0
4 0
4 0
4 0
4 0
4 0
4 0
4 0
4 0
4 0
4 0
4 0
4 0
4 0
4 0
4 0
4 0
4 0
4 0
4 0
4 0
4 0
4 0
4 0
4 0
4 0
4 0
4 -1
4 -1
4 -1
4 -1
4 -1
4 -1
4 -1
4 -1
4 -1
4 -1
1 2
1 2
1 2
1 2
1 2
1 2
1 2
1 2
1 2
1 2
2 0
2 0
2 0
2 0
2 0
2 0
2 0
2 0
2 0
2 0
1 2
1 2
1 2
1 2
1 2
1 2
1 2
1 2
1 2
1 2
2 0
2 0
2 0
2 0
2 0
2 0
2 0
2 0
2 0
2 0
4 0
4 0
4 0
4 0
4 0
4 0
4 0
4 0
4 0
4 2
4 2
4 2
4 2
4 2
4 2
4 2
4 2
4 2
4 2
4 2
C0
o16
o2
v0
v10
C1
o16
o2
v1
v11
C2
o16
o2
v2
v12
C3
o16
o2
v3
v13
C4
o16
o2
v4
v14
C5
o16
o2
v5
v15
C6
o16
o2
v6
v16
C7
o16
o2
v7
v17
C8
o16
o2
v8
v18
C9
o16
o2
v9
v19
C10
o16
o2
v0
v10
C11
o16
o2
v1
v11
C12
o16
o2
v2
v12
C13
o16
o2
v3
v13
C14
o16
o2
v4
v14
C15
o16
o2
v5
v15
C16
o16
o2
v6
v16
C17
o16
o2
v7
v17
C18
o16
o2
v8
v18
C19
o16
o2
v9
v19
C20
n0
C21
n0
C22
n0
C23
n0
C24
n0
C25
n0
C26
n0
C27
n0
C28
n0
C29
n0
C30
n0
C31
n0
C32
n0
C33
n0
C34
n0
C35
n0
C36
n0
C37
n0
C38
n0
C39
n0
C40
n0
C41
n0
C42
n0
C43
n0
C44
n0
C45
n0
C46
n0
C47
n0
C48
n0
C49
n0
C50
n0
C51
n0
C52
n0
C53
n0
C54
n0
C55
n0
C56
n0
C57
n0
C58
n0
C59
n0
C60
n0
C61
n0
C62
n0
C63
n0
C64
n0
C65
n0
C66
n0
C67
n0
C68
n0
C69
n0
C70
n0
C71
n0
C72
n0
C73
n0
C74
n0
C75
n0
C76
n0
C77
n0
C78
n0
C79
n0
C80
n0
C81
n0
C82
n0
C83
n0
C84
n0
C85
n0
C86
n0
C87
n0
C88
n0
C89
n0
C90
n0
C91
n0
C92
n0
C93
n0
C94
n0
C95
n0
C96
n0
C97
n0
C98
n0
C99
n0
O0 0
o54
11
o5
o0
n-1.66666666666667
v30
n2
o2
o5
v20
n2
v0
o2
o5
v21
n2
v1
o2
o5
v22
n2
v2
o2
o5
v23
n2
v3
o2
o5
v24
n2
v4
o2
o5
v25
n2
v5
o2
o5
v26
n2
v6
o2
o5
v27
n2
v7
o2
o5
v28
n2
v8
o2
o5
v29
n2
v9
k80
5
10
15
20
25
30
35
40
45
49
52
55
58
61
64
67
70
73
76
79
84
89
94
99
104
109
114
119
124
127
128
130
132
134
136
138
140
142
144
146
148
150
153
156
159
162
165
168
171
174
177
179
182
185
188
191
194
197
200
203
205
206
207
208
209
210
211
212
213
214
215
220
225
230
235
240
245
250
255
260
J0 4
0 0
10 0
20 1
41 -1
J1 4
1 0
11 0
21 1
42 -1
J2 4
2 0
12 0
22 1
43 -1
J3 4
3 0
13 0
23 1
44 -1
J4 4
4 0
14 0
24 1
45 -1
J5 4
5 0
15 0
25 1
46 -1
J6 4
6 0
16 0
26 1
47 -1
J7 4
7 0
17 0
27 1
48 -1
J8 4
8 0
18 0
28 1
49 -1
J9 4
9 0
19 0
29 1
50 -1
J10 4
0 0
10 0
41 -1
42 1
J11 4
1 0
11 0
42 -1
43 1
J12 4
2 0
12 0
43 -1
44 1
J13 4
3 0
13 0
44 -1
45 1
J14 4
4 0
14 0
45 -1
46 1
J15 4
5 0
15 0
46 -1
47 1
J16 4
6 0
16 0
47 -1
48 1
J17 4
7 0
17 0
48 -1
49 1
J18 4
8 0
18 0
49 -1
50 1
J19 4
9 0
19 0
30 1
50 -1
J20 3
0 -1
51 -1
61 1
J21 3
1 -1
52 -1
62 1
J22 3
2 -1
53 -1
63 1
J23 3
3 -1
54 -1
64 1
J24 3
4 -1
55 -1
65 1
J25 3
5 -1
56 -1
66 1
J26 3
6 -1
57 -1
67 1
J27 3
7 -1
58 -1
68 1
J28 3
8 -1
59 -1
69 1
J29 3
9 -1
60 -1
70 1
J30 2
31 1
71 -2
J31 2
32 1
72 -2
J32 2
33 1
73 -2
J33 2
34 1
74 -2
J34 2
35 1
75 -2
J35 2
36 1
76 -2
J36 2
37 1
77 -2
J37 2
38 1
78 -2
J38 2
39 1
79 -2
J39 2
40 1
80 -2
J40 2
20 -1
71 2
J41 2
21 -1
72 2
J42 2
22 -1
73 2
J43 2
23 -1
74 2
J44 2
24 -1
75 2
J45 2
25 -1
76 2
J46 2
26 -1
77 2
J47 2
27 -1
78 2
J48 2
28 -1
79 2
J49 2
29 -1
80 2
J50 2
20 -1
71 2
J51 2
21 -1
72 2
J52 2
22 -1
73 2
J53 2
23 -1
74 2
J54 2
24 -1
75 2
J55 2
25 -1
76 2
J56 2
26 -1
77 2
J57 2
27 -1
78 2
J58 2
28 -1
79 2
J59 2
29 -1
80 2
J60 1
71 2
J61 2
20 -1
72 2
J62 2
21 -1
73 2
J63 2
22 -1
74 2
J64 2
23 -1
75 2
J65 2
24 -1
76 2
J66 2
25 -1
77 2
J67 2
26 -1
78 2
J68 2
27 -1
79 2
J69 2
28 -1
80 2
J70 1
71 2
J71 2
20 -1
72 2
J72 2
21 -1
73 2
J73 2
22 -1
74 2
J74 2
23 -1
75 2
J75 2
24 -1
76 2
J76 2
25 -1
77 2
J77 2
26 -1
78 2
J78 2
27 -1
79 2
J79 2
28 -1
80 2
J80 3
0 -1
51 -1
52 1
J81 3
1 -1
52 -1
53 1
J82 3
2 -1
53 -1
54 1
J83 3
3 -1
54 -1
55 1
J84 3
4 -1
55 -1
56 1
J85 3
5 -1
56 -1
57 1
J86 3
6 -1
57 -1
58 1
J87 3
7 -1
58 -1
59 1
J88 3
8 -1
59 -1
60 1
J89 2
10 1
31 1
J90 2
11 1
32 1
J91 2
12 1
33 1
J92 2
13 1
34 1
J93 2
14 1
35 1
J94 2
15 1
36 1
J95 2
16 1
37 1
J96 2
17 1
38 1
J97 2
18 1
39 1
J98 2
19 1
40 1
J99 10
0 1
1 1
2 1
3 1
4 1
5 1
6 1
7 1
8 1
9 1
G0 21
0 0
1 0
2 0
3 0
4 0
5 0
6 0
7 0
8 0
9 0
20 0
21 0
22 0
23 0
24 0
25 0
26 0
27 0
28 0
29 0
30 0
